V_100_2.txt

VEHICLE     CAPACITY  LOCATIONS  CUSTOMER  OPTIONS  PRIORITIES  NUMTYPS
10		150		97		100		152		3		4

CUSTOMER  DEMAND
0	 17
1	 15
2	 10
3	 20
4	 13
5	 13
6	 12
7	 20
8	 18
9	 19
10	 17
11	 10
12	 18
13	 10
14	 13
15	 19
16	 15
17	 10
18	 19
19	 17
20	 19
21	 14
22	 17
23	 20
24	 15
25	 14
26	 20
27	 18
28	 11
29	 12
30	 15
31	 18
32	 15
33	 14
34	 13
35	 15
36	 17
37	 12
38	 15
39	 13
40	 10
41	 18
42	 12
43	 16
44	 11
45	 14
46	 19
47	 14
48	 15
49	 17
50	 15
51	 10
52	 12
53	 17
54	 13
55	 20
56	 20
57	 16
58	 17
59	 18
60	 16
61	 10
62	 15
63	 15
64	 19
65	 19
66	 18
67	 11
68	 19
69	 19
70	 10
71	 11
72	 16
73	 12
74	 11
75	 19
76	 12
77	 20
78	 16
79	 16
80	 15
81	 13
82	 10
83	 14
84	 16
85	 14
86	 13
87	 10
88	 16
89	 14
90	 17
91	 15
92	 13
93	 16
94	 13
95	 20
96	 11
97	 10
98	 15
99	 13

LOCATION  XCOORD  YCOORD  CAP  READY  DUE  TYP  SERVICETIME
0		43		13		-1		0		720	 0		0
1		40		44		-1		118		178		 2		6
2		12		47		-1		592		652		 2		6
3		8		47		-1		427		487		 2		6
4		43		3		-1		165		225		 2		6
5		6		5		-1		512		572		 2		6
6		43		11		-1		630		690		 2		6
7		35		37		-1		471		531		 2		6
8		30		31		-1		122		182		 2		6
9		16		37		-1		57		117		 2		6
10		46		45		-1		217		277		 2		6
11		43		35		-1		643		703		 2		6
12		34		14		-1		571		631		 2		6
13		14		26		-1		428		488		 2		6
14		22		43		-1		422		482		 2		6
15		38		50		-1		551		611		 2		6
16		36		2		-1		116		176		 2		6
17		31		23		-1		56		116		 2		6
18		28		21		-1		629		689		 2		6
19		1		5		-1		596		656		 2		6
20		24		48		-1		73		133		 2		6
21		32		33		-1		216		276		 2		6
22		10		1		-1		305		365		 2		6
23		24		6		-1		190		250		 2		6
24		3		42		-1		71		131		 2		6
25		17		13		-1		459		519		 2		6
26		8		9		-1		439		499		 2		6
27		8		11		-1		552		612		 2		6
28		29		48		-1		551		611		 2		6
29		34		11		-1		275		335		 2		6
30		39		34		-1		550		610		 2		6
31		20		8		-1		186		246		 2		6
32		29		31		-1		526		586		 2		6
33		15		26		-1		221		281		 2		6
34		34		28		-1		266		326		 2		6
35		50		20		-1		425		485		 2		6
36		24		30		-1		399		459		 2		6
37		14		40		-1		477		537		 2		6
38		7		40		-1		115		175		 2		6
39		35		24		-1		278		338		 2		6
40		36		30		-1		167		227		 2		6
41		8		49		-1		543		603		 2		6
42		30		26		-1		317		377		 2		6
43		4		48		-1		417		477		 2		6
44		11		28		-1		399		459		 2		6
45		19		18		-1		349		409		 2		6
46		36		40		-1		544		604		 2		6
47		8		11		-1		547		607		 2		6
48		34		9		-1		314		374		 2		6
49		34		21		-1		244		304		 2		6
50		34		4		-1		121		181		 2		6
51		36		18		-1		590		650		 2		6
52		5		6		-1		634		694		 2		6
53		1		33		-1		593		653		 2		6
54		47		35		-1		522		582		 2		6
55		22		4		-1		643		703		 2		6
56		2		48		-1		248		308		 2		6
57		24		14		-1		111		171		 2		6
58		37		33		-1		315		375		 2		6
59		26		41		-1		80		140		 2		6
60		37		24		-1		378		438		 2		6
61		23		22		-1		60		120		 2		6
62		35		27		-1		521		581		 2		6
63		8		16		-1		268		328		 2		6
64		24		39		-1		304		364		 2		6
65		18		45		-1		79		139		 2		6
66		5		2		-1		487		547		 2		6
67		48		43		-1		243		303		 2		6
68		31		10		-1		357		417		 2		6
69		35		15		-1		215		275		 2		6
70		10		28		-1		241		301		 2		6
71		41		35		-1		198		258		 2		6
72		22		9		-1		187		247		 2		6
73		22		28		-1		654		714		 2		6
74		44		1		-1		168		228		 2		6
75		20		31		-1		613		673		 2		6
76		26		27		-1		109		169		 2		6
77		36		13		5		248		488		 1		4
78		11		10		5		356		596		 1		4
79		11		30		3		256		496		 1		4
80		19		29		4		152		392		 1		4
81		23		27		5		17		257		 1		4
82		44		28		5		272		512		 1		4
83		44		35		4		165		405		 1		4
84		23		7		5		374		614		 1		4
85		10		32		3		318		558		 1		4
86		45		14		5		181		421		 1		4
87		44		30		5		102		342		 1		4
88		29		22		3		150		390		 1		4
89		15		32		4		125		365		 1		4
90		7		23		5		166		406		 1		4
91		8		39		5		108		348		 1		4
92		11		26		4		184		424		 1		4
93		32		42		4		31		271		 1		4
94		45		41		4		88		328		 1		4
95		16		20		4		233		473		 1		4
96		25		9		3		266		506		 1		4
OPTION  LOCATION  CUSTOMER  PRIO  SERVICETIME   COST
0		89		0		0		2		0
1		86		1		0		2		0
2		81		2		0		2		0
3		88		3		0		2		0
4		95		4		0		2		0
5		82		5		0		2		0
6		87		6		0		2		0
7		91		7		0		2		0
8		77		8		0		2		0
9		91		9		0		2		0
10		81		10		0		2		0
11		83		11		0		2		0
12		81		12		0		2		0
13		86		13		0		2		0
14		88		14		0		2		0
15		89		15		0		2		0
16		83		16		0		2		0
17		93		17		0		2		0
18		80		18		0		2		0
19		79		19		0		2		0
20		95		20		0		2		0
21		81		21		0		2		0
22		88		22		0		2		0
23		79		23		0		2		0
24		1		24		0		5		0
25		2		25		0		5		0
26		3		26		0		5		0
27		4		27		0		5		0
28		5		28		0		5		0
29		6		29		0		5		0
30		7		30		0		5		0
31		8		31		0		5		0
32		9		32		0		5		0
33		10		33		0		5		0
34		11		34		0		5		0
35		12		35		0		5		0
36		13		36		0		5		0
37		14		37		0		5		0
38		15		38		0		5		0
39		16		39		0		5		0
40		17		40		0		5		0
41		18		41		0		5		0
42		19		42		0		5		0
43		20		43		0		5		0
44		21		44		0		5		0
45		22		45		0		5		0
46		23		46		0		5		0
47		24		47		0		5		0
48		25		48		0		5		0
49		92		48		1		2		0
50		26		49		0		5		0
51		95		49		1		2		0
52		27		50		1		5		0
53		95		50		0		2		0
54		28		51		1		5		0
55		95		51		0		2		0
56		29		52		0		5		0
57		96		52		1		2		0
58		30		53		1		5		0
59		93		53		0		2		0
60		31		54		0		5		0
61		91		54		1		2		0
62		32		55		1		5		0
63		80		55		0		2		0
64		33		56		1		5		0
65		95		56		0		2		0
66		34		57		1		5		0
67		81		57		0		2		0
68		35		58		1		5		0
69		96		58		0		2		0
70		36		59		1		5		0
71		88		59		0		2		0
72		37		60		1		5		0
73		86		60		0		2		0
74		38		61		0		5		0
75		85		61		1		2		0
76		39		62		1		5		0
77		86		62		0		2		0
78		40		63		0		5		0
79		89		63		1		2		0
80		41		64		1		5		0
81		90		64		0		2		0
82		42		65		0		5		0
83		81		65		1		2		0
84		43		66		0		5		0
85		92		66		1		2		0
86		44		67		1		5		0
87		91		67		0		2		0
88		45		68		0		5		0
89		96		68		1		2		0
90		46		69		1		5		0
91		81		69		0		2		0
92		47		70		0		5		0
93		80		70		1		2		0
94		48		71		1		5		0
95		91		71		0		2		0
96		49		72		0		5		0
97		94		72		1		2		0
98		50		73		0		5		0
99		79		73		1		2		0
100		51		74		1		5		0
101		88		74		0		2		0
102		52		75		1		5		0
103		90		75		0		2		0
104		53		76		0		5		0
105		85		76		1		2		0
106		54		77		0		5		0
107		91		77		1		2		0
108		55		78		1		5		0
109		79		78		0		2		0
110		56		79		0		5		0
111		85		79		1		2		0
112		57		80		0		5		0
113		94		80		1		2		0
114		58		81		1		5		0
115		94		81		0		2		0
116		59		82		1		5		0
117		91		82		0		2		0
118		60		83		1		5		0
119		88		83		0		2		0
120		61		84		0		5		0
121		88		84		1		2		0
122		62		85		1		5		0
123		81		85		0		2		0
124		63		86		0		5		0
125		95		86		1		2		0
126		64		87		0		5		0
127		87		87		1		2		0
128		65		88		1		5		0
129		90		88		0		2		0
130		66		89		1		5		0
131		92		89		0		2		0
132		67		90		1		5		0
133		87		90		0		2		0
134		68		91		1		5		0
135		88		91		0		2		0
136		69		92		1		5		0
137		80		92		0		2		0
138		70		93		1		5		0
139		88		93		0		2		0
140		71		94		0		5		0
141		92		94		1		2		0
142		72		95		1		5		0
143		77		95		0		2		0
144		73		96		1		5		0
145		86		96		0		2		0
146		74		97		0		5		0
147		78		97		1		2		0
148		75		98		1		5		0
149		81		98		0		2		0
150		76		99		1		5		0
151		88		99		0		2		0
